language Essence 1.3

letting class be function(1 --> 3, 2 --> 4, 3 --> 4, 4 --> 1, 5 --> 3, 6 --> 5, 7 --> 3, 8 --> 2)
letting deck_length be 27
letting deck_width be 50
letting length be function(1 --> 2, 2 --> 19, 3 --> 2, 4 --> 4, 5 --> 26, 6 --> 3, 7 --> 25, 8 --> 22)
letting n_classes be 5
letting n_containers be 8
letting separation be function({1, 2} --> 17, {2, 4} --> 16)
letting width be function(1 --> 1, 2 --> 1, 3 --> 1, 4 --> 3, 5 --> 34, 6 --> 3, 7 --> 5, 8 --> 6)
